
Gurobi 11.0.3 (linux64) logging started Mon Aug 25 17:17:54 2025

Set parameter LogFile to value "/home/yihong/Coding/OR_SUC/SUC_epstheta_results_bigM100000_thread4/case24_ieee_rts_theta0.001_epsilon0.1_gurobi_seed280000_num_gen100_N_WDR50_load_scaling_factor1_proposed_eps_T5quadra_cost_bc1.03.txt"
Set parameter TimeLimit to value 3600
Gurobi Optimizer version 11.0.3 build v11.0.3rc0 (linux64 - "Ubuntu 20.04.6 LTS")

CPU model: AMD EPYC 7532 32-Core Processor, instruction set [SSE2|AVX|AVX2]
Thread count: 64 physical cores, 128 logical processors, using up to 4 threads

Academic license 2399124 - for non-commercial use only - registered to yi___@ed.ac.uk
Optimize a model with 11547 rows, 6251 columns and 272622 nonzeros
Model fingerprint: 0x79b44457
Model has 500 quadratic constraints
Variable types: 5751 continuous, 500 integer (500 binary)
Coefficient statistics:
  Matrix range     [3e-04, 3e+03]
  QMatrix range    [2e-03, 8e-03]
  QLMatrix range   [3e-01, 6e+01]
  Objective range  [1e+00, 1e+00]
  Bounds range     [1e+00, 1e+00]
  RHS range        [5e-02, 9e+03]
Presolve removed 9540 rows and 2772 columns
Presolve time: 0.07s
Presolved: 2007 rows, 3479 columns, 11425 nonzeros
Presolved model has 500 quadratic constraint(s)
Variable types: 2979 continuous, 500 integer (500 binary)

Root relaxation: objective 6.096072e+03, 1561 iterations, 0.02 seconds (0.02 work units)

    Nodes    |    Current Node    |     Objective Bounds      |     Work
 Expl Unexpl |  Obj  Depth IntInf | Incumbent    BestBd   Gap | It/Node Time

     0     0 6096.07150    0    -          - 6096.07150      -     -    0s
     0     0 107455.972    0  110          - 107455.972      -     -    0s
     0     0 166282.670    0   55          - 166282.670      -     -    0s
     0     0 166287.542    0   55          - 166287.542      -     -    0s
     0     0 166320.613    0   40          - 166320.613      -     -    0s
     0     0 166320.678    0   40          - 166320.678      -     -    0s
     0     0 166320.678    0   40          - 166320.678      -     -    0s
     0     0 166320.919    0   40          - 166320.919      -     -    0s
     0     2 166320.919    0   40          - 166320.919      -     -    1s
H   76    86                    166368.66640 166327.844  0.02%   8.3    1s
*   76    86              18    166368.66640 166327.844  0.02%   8.3    1s

Cutting planes:
  Gomory: 81
  Implied bound: 122
  MIR: 35
  Flow cover: 64
  RLT: 67

Explored 87 nodes (4618 simplex iterations) in 1.64 seconds (1.21 work units)
Thread count was 4 (of 128 available processors)

Solution count 2: 166369 166369 

Optimal solution found (tolerance 1.00e-03)
Warning: max constraint violation (5.6464e-07) exceeds tolerance
Best objective 1.663686663972e+05, best bound 1.663278444390e+05, gap 0.0245%

Gurobi 11.0.3 (linux64) logging started Mon Aug 25 17:17:56 2025

Set parameter LogFile to value "/home/yihong/Coding/OR_SUC/SUC_epstheta_results_bigM100000_thread4/case24_ieee_rts_theta0.001_epsilon0.1_gurobi_seed280000_num_gen100_N_WDR50_load_scaling_factor1_proposed_eps_T5quadra_cost_bc1.03.txt"
Set parameter TimeLimit to value 3600
Gurobi Optimizer version 11.0.3 build v11.0.3rc0 (linux64 - "Ubuntu 20.04.6 LTS")

CPU model: AMD EPYC 7532 32-Core Processor, instruction set [SSE2|AVX|AVX2]
Thread count: 64 physical cores, 128 logical processors, using up to 4 threads

Academic license 2399124 - for non-commercial use only - registered to yi___@ed.ac.uk
Optimize a model with 11547 rows, 6252 columns and 274121 nonzeros
Model fingerprint: 0xb25f2675
Model has 501 quadratic constraints
Variable types: 5752 continuous, 500 integer (500 binary)
Coefficient statistics:
  Matrix range     [3e-04, 3e+03]
  QMatrix range    [2e-03, 5e+01]
  QLMatrix range   [3e-01, 6e+01]
  Objective range  [1e+00, 1e+00]
  Bounds range     [1e-01, 1e+00]
  RHS range        [1e+00, 2e+05]
  QRHS range       [5e-02, 5e-02]
Presolve removed 8730 rows and 2373 columns
Presolve time: 0.08s
Presolved: 3319 rows, 4379 columns, 17562 nonzeros
Presolved model has 500 quadratic constraint(s)
Presolved model has 1 bilinear constraint(s)

Solving non-convex MIQCP

Variable types: 3875 continuous, 504 integer (504 binary)

Root relaxation: objective 1.476718e-05, 3602 iterations, 0.11 seconds (0.13 work units)

    Nodes    |    Current Node    |     Objective Bounds      |     Work
 Expl Unexpl |  Obj  Depth IntInf | Incumbent    BestBd   Gap | It/Node Time

     0     0    0.00001    0    2          -    0.00001      -     -    0s
     0     0    0.00001    0    2          -    0.00001      -     -    0s
     0     0    0.00001    0    2          -    0.00001      -     -    0s
H    0     0                       0.0002470    0.00001  94.0%     -    0s
     0     0    0.00002    0    6    0.00025    0.00002  93.9%     -    0s
H    0     0                       0.0001434    0.00002  89.5%     -    0s
H    0     0                       0.0001262    0.00002  88.1%     -    0s
     0     2    0.00012    0    6    0.00013    0.00012  5.27%     -    1s
H   30    31                       0.0001262    0.00012  4.83%  61.4    1s
H   31    31                       0.0001205    0.00012  0.39%  59.4    1s

Cutting planes:
  Implied bound: 13
  Inf proof: 3
  RLT: 2
  PSD: 1

Explored 74 nodes (8146 simplex iterations) in 1.41 seconds (1.63 work units)
Thread count was 4 (of 128 available processors)

Solution count 5: 0.000120543 0.000126168 0.000126195 ... 0.000247019

Optimal solution found (tolerance 1.00e-03)
Best objective 1.205432095657e-04, best bound 1.205432095657e-04, gap 0.0000%
